55
Time limit set to 60 seconds
Running CP solver
/home/omastto1/General-Optimization-Solver/src/solvers/mmrcpsp.py:42(stream:108:6): Warning: Cumulative expression 'pulse': height is zero, expression is zero everywhere.
                                                                                               VarCumulAtom_149 = pulse(task_0_mode_0, 0)
/home/omastto1/General-Optimization-Solver/src/solvers/mmrcpsp.py:42(stream:108:1253): Warning: Cumulative expression 'pulse': height is zero, expression is zero everywhere.
                                                                                                  VarCumulAtom_198 = pulse(task_17_mode_0, 0)
/home/omastto1/General-Optimization-Solver/src/solvers/mmrcpsp.py:42(stream:109:6): Warning: Cumulative expression 'pulse': height is zero, expression is zero everywhere.
                                                                                               VarCumulAtom_202 = pulse(task_0_mode_0, 0)
/home/omastto1/General-Optimization-Solver/src/solvers/mmrcpsp.py:42(stream:109:1256): Warning: Cumulative expression 'pulse': height is zero, expression is zero everywhere.
                                                                                                  VarCumulAtom_251 = pulse(task_17_mode_0, 0)
 ! --------------------------------------------------- CP Optimizer 20.1.0.0 --
 ! Minimization problem - 69 variables, 51 constraints
 ! TimeLimit            = 60
 ! Workers              = 14
 ! LogVerbosity         = Terse
 ! Initial process time : 0.01s (0.01s extraction + 0.00s propagation)
 !  . Log search space  : 156.3 (before), 156.3 (after)
 !  . Memory usage      : 754.6 kB (before), 754.6 kB (after)
 ! Using parallel search with 14 workers.
 ! ----------------------------------------------------------------------------
 !          Best Branches  Non-fixed    W       Branch decision
                        0         69                 -
 + New bound is 34
 ! Using iterative diving.
 ! Using temporal relaxation.
 *            58       51  0.75s        1      (gap is 41.38%)
 *            51      108  0.75s        1      (gap is 33.33%)
 *            49      148  0.75s        1      (gap is 30.61%)
 *            48      208  0.75s        1      (gap is 29.17%)
 *            44      314  0.75s        1      (gap is 22.73%)
 *            43     1348  0.75s        1      (gap is 20.93%)
 *            41     4648  0.75s        1      (gap is 17.07%)
 *            40     3443  0.75s        6      (gap is 15.00%)
 *            39     2589  0.75s        7      (gap is 12.82%)
 *            38     1386  0.75s        9      (gap is 10.53%)
 *            37     8792  1.41s        1      (gap is 8.11%)
 *            36    10101  1.98s        3      (gap is 5.56%)
 *            35    12033  1.98s        3      (gap is 2.86%)
 *            34     8215  1.98s        4      (gap is 0.00%)
 ! ----------------------------------------------------------------------------
 ! Search completed, 14 solutions found.
 ! Best objective         : 34 (optimal - effective tol. is 0)
 ! Best bound             : 34
 ! ----------------------------------------------------------------------------
 ! Number of branches     : 270256
 ! Number of fails        : 80111
 ! Total memory usage     : 10.0 MB (10.0 MB CP Optimizer + 0.1 MB Concert)
 ! Time spent in solve    : 2.55s (2.54s engine + 0.01s extraction)
 ! Search speed (br. / s) : 106820.6
 ! ----------------------------------------------------------------------------
task_0: (start=0, end=0, size=0, length=0)
Task 0 is scheduled in mode 0 from 0 to 0
task_1: (start=0, end=7, size=7, length=7)
Task 1 is scheduled in mode 2 from 0 to 7
task_2: (start=2, end=8, size=6, length=6)
Task 2 is scheduled in mode 1 from 2 to 8
task_3: (start=0, end=2, size=2, length=2)
Task 3 is scheduled in mode 0 from 0 to 2
task_4: (start=8, end=17, size=9, length=9)
Task 4 is scheduled in mode 2 from 8 to 17
task_5: (start=8, end=13, size=5, length=5)
Task 5 is scheduled in mode 2 from 8 to 13
task_6: (start=13, end=14, size=1, length=1)
Task 6 is scheduled in mode 0 from 13 to 14
task_7: (start=14, end=15, size=1, length=1)
Task 7 is scheduled in mode 0 from 14 to 15
task_8: (start=15, end=17, size=2, length=2)
Task 8 is scheduled in mode 0 from 15 to 17
task_9: (start=23, end=32, size=9, length=9)
Task 9 is scheduled in mode 2 from 23 to 32
task_10: (start=22, end=23, size=1, length=1)
Task 10 is scheduled in mode 0 from 22 to 23
task_11: (start=18, end=20, size=2, length=2)
Task 11 is scheduled in mode 0 from 18 to 20
task_12: (start=20, end=22, size=2, length=2)
Task 12 is scheduled in mode 0 from 20 to 22
task_13: (start=17, end=25, size=8, length=8)
Task 13 is scheduled in mode 2 from 17 to 25
task_14: (start=17, end=18, size=1, length=1)
Task 14 is scheduled in mode 0 from 17 to 18
task_15: (start=32, end=34, size=2, length=2)
Task 15 is scheduled in mode 0 from 32 to 34
task_16: (start=25, end=34, size=9, length=9)
Task 16 is scheduled in mode 2 from 25 to 34
task_17: (start=34, end=34, size=0, length=0)
Task 17 is scheduled in mode 0 from 34 to 34
Optimal solution found
Objective value: 34
Solution is optimal.
